0 20 20
1 14 23
2 24 25
3 21 24
4 24 25
5 27 27
6 24 26
7 20 25
8 24 26
9 22 23
10 17 23
11 22 23
12 19 22
13 21 21
14 20 20
15 18 18
16 17 17
17 14 17
18 18 18
19 3 17
20 16 16
21 9 15
22 8 12
23 6 13
24 8 10
25 8 8
26 5 7
27 6 6
28 1 5
29 3 3
30 3 3
31 1 2

